(set-info :source |printed by MathSAT|)
(declare-fun |.x{671}| () Int)
(declare-fun |.x{922}| () Int)
(declare-fun |.x{672}| () (Array Int Int))
(declare-fun |.x{923}| () (Array Int Int))
(declare-fun |.x{673}| () (Array Int Int))
(declare-fun |.x{924}| () (Array Int Int))
(declare-fun |.x{674}| () (Array Int (Array Int Int)))
(declare-fun |.x{925}| () (Array Int (Array Int Int)))
(declare-fun |.x{675}| () (Array Int (Array Int Int)))
(declare-fun |.x{926}| () (Array Int (Array Int Int)))
(declare-fun |.x{676}| () Int)
(declare-fun |.x{927}| () Int)
(declare-fun |.x{677}| () Int)
(declare-fun |.x{928}| () Int)
(declare-fun |.x{678}| () (Array Int Int))
(declare-fun |.x{929}| () (Array Int Int))
(declare-fun |.x{679}| () (Array Int Int))
(declare-fun |.x{930}| () (Array Int Int))
(declare-fun |.x{680}| () Int)
(declare-fun |.x{931}| () Int)
(declare-fun |.x{681}| () Int)
(declare-fun |.x{932}| () Int)
(declare-fun |.x{682}| () Int)
(declare-fun |.x{933}| () Int)
(declare-fun |.x{683}| () Int)
(declare-fun |.x{934}| () Int)
(declare-fun |.x{684}| () Bool)
(declare-fun |.x{935}| () Bool)
(declare-fun |.x{685}| () Int)
(declare-fun |.x{936}| () Int)
(declare-fun |.x{686}| () Int)
(declare-fun |.x{937}| () Int)
(declare-fun |.x{687}| () Int)
(declare-fun |.x{938}| () Int)
(declare-fun |.x{711}| () Int)
(declare-fun |.x{939}| () Int)
(declare-fun |.x{689}| () Int)
(declare-fun |.x{940}| () Int)
(declare-fun |.x{690}| () Int)
(declare-fun |.x{941}| () Int)
(declare-fun |.x{691}| () Int)
(declare-fun |.x{942}| () Int)
(declare-fun |.x{715}| () Int)
(declare-fun |.x{943}| () Int)
(declare-fun |.x{693}| () Bool)
(declare-fun |.x{898}| () Bool)
(declare-fun |.loc{4}| () Bool)
(declare-fun |.loc{7}| () Bool)
(declare-fun |.loc{5}| () Bool)
(declare-fun |.loc{8}| () Bool)
(declare-fun |.loc{6}| () Bool)
(declare-fun |.loc{9}| () Bool)
(declare-fun |.x{91}| () (Array Int Int))
(declare-fun |.x{571}| () Bool)
(define-fun .def_54 () Bool (! |.loc{4}| :next |.loc{7}|))
(define-fun .def_65 () Bool (not .def_54))
(define-fun .def_56 () Bool (! |.loc{5}| :next |.loc{8}|))
(define-fun .def_63 () Bool (not .def_56))
(define-fun .def_319 () Bool (and .def_63 .def_65))
(define-fun .def_58 () Bool (! |.loc{6}| :next |.loc{9}|))
(define-fun .def_109 () Bool (not .def_58))
(define-fun .def_387 () Bool (and .def_109 .def_319))
(define-fun .def_28 () Int (! |.x{681}| :next |.x{932}|))
(define-fun .def_26 () Int (! |.x{680}| :next |.x{931}|))
(define-fun .def_381 () Bool (= .def_26 .def_28))
(define-fun .def_16 () (Array Int (Array Int Int)) (! |.x{675}| :next |.x{926}|))
(define-fun .def_14 () (Array Int (Array Int Int)) (! |.x{674}| :next |.x{925}|))
(define-fun .def_380 () Bool (= .def_14 .def_16))
(define-fun .def_382 () Bool (and .def_380 .def_381))
(define-fun .def_20 () Int (! |.x{677}| :next |.x{928}|))
(define-fun .def_18 () Int (! |.x{676}| :next |.x{927}|))
(define-fun .def_379 () Bool (= .def_18 .def_20))
(define-fun .def_383 () Bool (and .def_379 .def_382))
(define-fun .def_24 () (Array Int Int) (! |.x{679}| :next |.x{930}|))
(define-fun .def_22 () (Array Int Int) (! |.x{678}| :next |.x{929}|))
(define-fun .def_378 () Bool (= .def_22 .def_24))
(define-fun .def_384 () Bool (and .def_378 .def_383))
(define-fun .def_52 () Bool (! |.x{693}| :next |.x{898}|))
(define-fun .def_377 () Bool (not .def_52))
(define-fun .def_385 () Bool (and .def_377 .def_384))
(define-fun .def_12 () (Array Int Int) (! |.x{673}| :next |.x{924}|))
(define-fun .def_10 () (Array Int Int) (! |.x{672}| :next |.x{923}|))
(define-fun .def_376 () Bool (= .def_10 .def_12))
(define-fun .def_386 () Bool (and .def_376 .def_385))
(define-fun .def_388 () Bool (! (and .def_386 .def_387) :init true))
(define-fun .def_373 () Bool (= .def_28 |.x{932}|))
(define-fun .def_371 () Bool (= .def_24 |.x{930}|))
(define-fun .def_369 () Bool (= .def_20 |.x{928}|))
(define-fun .def_367 () Bool (= .def_16 |.x{926}|))
(define-fun .def_8 () Int (! |.x{671}| :next |.x{922}|))
(define-fun .def_365 () Bool (= .def_8 |.x{922}|))
(define-fun .def_364 () Bool (= .def_12 |.x{924}|))
(define-fun .def_366 () Bool (and .def_364 .def_365))
(define-fun .def_368 () Bool (and .def_366 .def_367))
(define-fun .def_370 () Bool (and .def_368 .def_369))
(define-fun .def_372 () Bool (and .def_370 .def_371))
(define-fun .def_374 () Bool (and .def_372 .def_373))
(define-fun .def_44 () Int (! |.x{689}| :next |.x{940}|))
(define-fun .def_361 () Bool (= .def_44 |.x{940}|))
(define-fun .def_359 () Bool (= .def_26 |.x{931}|))
(define-fun .def_357 () Bool (= .def_22 |.x{929}|))
(define-fun .def_355 () Bool (= .def_18 |.x{927}|))
(define-fun .def_40 () Int (! |.x{687}| :next |.x{938}|))
(define-fun .def_352 () Bool (= .def_40 |.x{938}|))
(define-fun .def_225 () Bool (= |.x{939}| 0))
(define-fun .def_336 () Bool (or .def_52 .def_225))
(define-fun .def_34 () Bool (! |.x{684}| :next |.x{935}|))
(define-fun .def_205 () Int (ite .def_34 1 0))
(define-fun .def_206 () Bool (= |.x{943}| .def_205))
(define-fun .def_204 () Bool (= |.x{939}| |.x{943}|))
(define-fun .def_207 () Bool (and .def_204 .def_206))
(define-fun .def_208 () Bool (or .def_52 .def_207))
(define-fun .def_209 () Bool (and |.x{898}| .def_208))
(define-fun .def_116 () Bool (= .def_10 |.x{923}|))
(define-fun .def_210 () Bool (and .def_116 .def_209))
(define-fun .def_30 () Int (! |.x{682}| :next |.x{933}|))
(define-fun .def_93 () Bool (= .def_30 |.x{933}|))
(define-fun .def_329 () Bool (and .def_93 .def_210))
(define-fun .def_152 () Bool (= .def_34 |.x{935}|))
(define-fun .def_330 () Bool (and .def_152 .def_329))
(define-fun .def_36 () Int (! |.x{685}| :next |.x{936}|))
(define-fun .def_156 () Bool (= .def_36 |.x{936}|))
(define-fun .def_331 () Bool (and .def_156 .def_330))
(define-fun .def_46 () Int (! |.x{690}| :next |.x{941}|))
(define-fun .def_158 () Bool (= .def_46 |.x{941}|))
(define-fun .def_332 () Bool (and .def_158 .def_331))
(define-fun .def_333 () Bool (and .def_54 .def_332))
(define-fun .def_48 () Int (! |.x{691}| :next |.x{942}|))
(define-fun .def_161 () Bool (= .def_48 |.x{942}|))
(define-fun .def_334 () Bool (and .def_161 .def_333))
(define-fun .def_335 () Bool (and .def_56 .def_334))
(define-fun .def_337 () Bool (and .def_335 .def_336))
(define-fun .def_338 () Bool (and .def_109 .def_337))
(define-fun .def_324 () (Array Int Int) (store .def_10 .def_36 0))
(define-fun .def_325 () Bool (= |.x{923}| .def_324))
(define-fun .def_326 () Bool (or .def_52 .def_325))
(define-fun .def_317 () Bool (= |.x{933}| |.x{940}|))
(define-fun .def_318 () Bool (or |.x{898}| .def_317))
(define-fun .def_320 () Bool (and .def_318 .def_319))
(define-fun .def_95 () Bool (= .def_52 |.x{898}|))
(define-fun .def_321 () Bool (and .def_95 .def_320))
(define-fun .def_50 () Int (! |.x{715}| :next |.x{943}|))
(define-fun .def_97 () Bool (= .def_50 |.x{943}|))
(define-fun .def_322 () Bool (and .def_97 .def_321))
(define-fun .def_42 () Int (! |.x{711}| :next |.x{939}|))
(define-fun .def_99 () Bool (= .def_42 |.x{939}|))
(define-fun .def_323 () Bool (and .def_99 .def_322))
(define-fun .def_327 () Bool (and .def_323 .def_326))
(define-fun .def_328 () Bool (and .def_58 .def_327))
(define-fun .def_339 () Bool (or .def_328 .def_338))
(define-fun .def_340 () Bool (and |.loc{9}| .def_339))
(define-fun .def_112 () Bool (not |.loc{8}|))
(define-fun .def_341 () Bool (and .def_112 .def_340))
(define-fun .def_287 () Real (* (/ 1 4294967296) (to_real |.x{941}|)))
(define-fun .def_288 () Int (to_int .def_287))
(define-fun .def_289 () Int (* 4294967296 .def_288))
(define-fun .def_272 () Real (* (/ 1 4294967296) (to_real |.x{938}|)))
(define-fun .def_273 () Int (to_int .def_272))
(define-fun .def_278 () Int (* (- 4294967296) .def_273))
(define-fun .def_290 () Int (+ .def_278 .def_289))
(define-fun .def_291 () Int (* (- 1) |.x{941}|))
(define-fun .def_294 () Int (+ .def_291 .def_290))
(define-fun .def_295 () Int (+ |.x{938}| .def_294))
(define-fun .def_296 () Bool (= .def_295 0))
(define-fun .def_298 () Bool (not .def_296))
(define-fun .def_247 () Bool (not |.x{935}|))
(define-fun .def_299 () Bool (and .def_247 .def_298))
(define-fun .def_297 () Bool (and |.x{935}| .def_296))
(define-fun .def_300 () Bool (or .def_297 .def_299))
(define-fun .def_274 () Int (* 4294967296 .def_273))
(define-fun .def_275 () Int (* (- 1) .def_274))
(define-fun .def_276 () Int (+ |.x{938}| .def_275))
(define-fun .def_277 () Int (+ (- 4294967296) .def_276))
(define-fun .def_279 () Int (+ |.x{938}| .def_278))
(define-fun .def_280 () Bool (<= .def_279 2147483647))
(define-fun .def_281 () Int (ite .def_280 .def_276 .def_277))
(define-fun .def_282 () Int (* 4 .def_281))
(define-fun .def_283 () Int (+ |.x{942}| .def_282))
(define-fun .def_284 () (Array Int Int) (select |.x{925}| |.x{936}|))
(define-fun .def_285 () Int (select .def_284 .def_283))
(define-fun .def_286 () Bool (= |.x{941}| .def_285))
(define-fun .def_301 () Bool (and .def_286 .def_300))
(define-fun .def_302 () Bool (and |.x{571}| .def_301))
(define-fun .def_303 () Bool (or |.x{898}| .def_302))
(define-fun .def_269 () Bool (not |.x{571}|))
(define-fun .def_251 () Real (* (/ 1 4294967296) (to_real .def_40)))
(define-fun .def_252 () Int (to_int .def_251))
(define-fun .def_253 () Int (* (- 4294967296) .def_252))
(define-fun .def_254 () Int (+ .def_40 .def_253))
(define-fun .def_255 () Bool (<= 10000 .def_254))
(define-fun .def_270 () Bool (and .def_255 .def_269))
(define-fun .def_257 () Bool (not .def_255))
(define-fun .def_267 () Bool (and .def_257 |.x{571}|))
(define-fun .def_268 () Bool (or .def_52 .def_267))
(define-fun .def_271 () Bool (or .def_268 .def_270))
(define-fun .def_304 () Bool (and .def_271 .def_303))
(define-fun .def_305 () Bool (and .def_116 .def_304))
(define-fun .def_60 () Bool (not |.loc{9}|))
(define-fun .def_306 () Bool (and .def_60 .def_305))
(define-fun .def_307 () Bool (and .def_65 .def_306))
(define-fun .def_308 () Bool (and .def_93 .def_307))
(define-fun .def_309 () Bool (and .def_95 .def_308))
(define-fun .def_310 () Bool (and .def_97 .def_309))
(define-fun .def_311 () Bool (and .def_99 .def_310))
(define-fun .def_312 () Bool (and .def_156 .def_311))
(define-fun .def_313 () Bool (and .def_56 .def_312))
(define-fun .def_314 () Bool (and .def_161 .def_313))
(define-fun .def_315 () Bool (and .def_109 .def_314))
(define-fun .def_316 () Bool (and |.loc{8}| .def_315))
(define-fun .def_342 () Bool (or .def_316 .def_341))
(define-fun .def_258 () Bool (and |.x{935}| .def_257))
(define-fun .def_259 () Bool (or .def_52 .def_258))
(define-fun .def_256 () Bool (and .def_247 .def_255))
(define-fun .def_260 () Bool (or .def_256 .def_259))
(define-fun .def_248 () Bool (or |.x{898}| .def_247))
(define-fun .def_240 () Bool (and .def_60 .def_116))
(define-fun .def_241 () Bool (and .def_65 .def_240))
(define-fun .def_242 () Bool (and .def_93 .def_241))
(define-fun .def_243 () Bool (and .def_95 .def_242))
(define-fun .def_244 () Bool (and .def_97 .def_243))
(define-fun .def_245 () Bool (and .def_99 .def_244))
(define-fun .def_246 () Bool (and .def_156 .def_245))
(define-fun .def_249 () Bool (and .def_246 .def_248))
(define-fun .def_250 () Bool (and .def_158 .def_249))
(define-fun .def_261 () Bool (and .def_250 .def_260))
(define-fun .def_262 () Bool (and .def_56 .def_261))
(define-fun .def_263 () Bool (and .def_161 .def_262))
(define-fun .def_264 () Bool (and .def_109 .def_263))
(define-fun .def_265 () Bool (and |.loc{8}| .def_264))
(define-fun .def_343 () Bool (or .def_265 .def_342))
(define-fun .def_344 () Bool (and |.loc{7}| .def_343))
(define-fun .def_226 () Bool (not .def_225))
(define-fun .def_227 () Bool (or |.x{898}| .def_226))
(define-fun .def_223 () Bool (and .def_116 .def_208))
(define-fun .def_166 () Bool (not |.loc{7}|))
(define-fun .def_224 () Bool (and .def_166 .def_223))
(define-fun .def_228 () Bool (and .def_224 .def_227))
(define-fun .def_229 () Bool (and .def_93 .def_228))
(define-fun .def_230 () Bool (and .def_152 .def_229))
(define-fun .def_231 () Bool (and .def_95 .def_230))
(define-fun .def_232 () Bool (and .def_156 .def_231))
(define-fun .def_233 () Bool (and .def_158 .def_232))
(define-fun .def_234 () Bool (and .def_54 .def_233))
(define-fun .def_235 () Bool (and .def_56 .def_234))
(define-fun .def_236 () Bool (and .def_161 .def_235))
(define-fun .def_237 () Bool (and .def_109 .def_236))
(define-fun .def_238 () Bool (and |.loc{9}| .def_237))
(define-fun .def_239 () Bool (and .def_112 .def_238))
(define-fun .def_345 () Bool (or .def_239 .def_344))
(define-fun .def_211 () Bool (and .def_166 .def_210))
(define-fun .def_212 () Bool (and .def_52 .def_211))
(define-fun .def_213 () Bool (and .def_93 .def_212))
(define-fun .def_214 () Bool (and .def_152 .def_213))
(define-fun .def_215 () Bool (and .def_156 .def_214))
(define-fun .def_216 () Bool (and .def_158 .def_215))
(define-fun .def_217 () Bool (and .def_54 .def_216))
(define-fun .def_218 () Bool (and .def_56 .def_217))
(define-fun .def_219 () Bool (and .def_161 .def_218))
(define-fun .def_220 () Bool (and .def_109 .def_219))
(define-fun .def_221 () Bool (and |.loc{9}| .def_220))
(define-fun .def_222 () Bool (and .def_112 .def_221))
(define-fun .def_346 () Bool (or .def_222 .def_345))
(define-fun .def_38 () Int (! |.x{686}| :next |.x{937}|))
(define-fun .def_179 () Bool (= .def_38 |.x{937}|))
(define-fun .def_32 () Int (! |.x{683}| :next |.x{934}|))
(define-fun .def_172 () Bool (= .def_32 |.x{934}|))
(define-fun .def_203 () Bool (and .def_172 .def_179))
(define-fun .def_347 () Bool (and .def_203 .def_346))
(define-fun .def_123 () Real (* (/ 1 4294967296) (to_real |.x{937}|)))
(define-fun .def_124 () Int (to_int .def_123))
(define-fun .def_126 () Int (* (- 4294967296) .def_124))
(define-fun .def_127 () Int (+ |.x{937}| .def_126))
(define-fun .def_129 () Bool (<= 10000 .def_127))
(define-fun .def_186 () Bool (or |.x{898}| .def_129))
(define-fun .def_114 () Bool (= .def_32 |.x{937}|))
(define-fun .def_115 () Bool (or .def_52 .def_114))
(define-fun .def_187 () Bool (and .def_115 .def_186))
(define-fun .def_188 () Bool (and .def_116 .def_187))
(define-fun .def_189 () Bool (and .def_166 .def_188))
(define-fun .def_190 () Bool (and .def_60 .def_189))
(define-fun .def_191 () Bool (and .def_63 .def_190))
(define-fun .def_192 () Bool (and .def_93 .def_191))
(define-fun .def_193 () Bool (and .def_95 .def_192))
(define-fun .def_194 () Bool (and .def_152 .def_193))
(define-fun .def_195 () Bool (and .def_97 .def_194))
(define-fun .def_196 () Bool (and .def_99 .def_195))
(define-fun .def_197 () Bool (and .def_156 .def_196))
(define-fun .def_198 () Bool (and .def_158 .def_197))
(define-fun .def_199 () Bool (and .def_54 .def_198))
(define-fun .def_200 () Bool (and .def_161 .def_199))
(define-fun .def_201 () Bool (and .def_109 .def_200))
(define-fun .def_202 () Bool (and |.loc{8}| .def_201))
(define-fun .def_348 () Bool (or .def_202 .def_347))
(define-fun .def_167 () Bool (and .def_116 .def_166))
(define-fun .def_168 () Bool (and .def_60 .def_167))
(define-fun .def_169 () Bool (and .def_63 .def_168))
(define-fun .def_170 () Bool (and .def_52 .def_169))
(define-fun .def_171 () Bool (and .def_93 .def_170))
(define-fun .def_173 () Bool (and .def_171 .def_172))
(define-fun .def_174 () Bool (and .def_95 .def_173))
(define-fun .def_175 () Bool (and .def_152 .def_174))
(define-fun .def_176 () Bool (and .def_97 .def_175))
(define-fun .def_177 () Bool (and .def_99 .def_176))
(define-fun .def_178 () Bool (and .def_156 .def_177))
(define-fun .def_180 () Bool (and .def_178 .def_179))
(define-fun .def_181 () Bool (and .def_158 .def_180))
(define-fun .def_182 () Bool (and .def_54 .def_181))
(define-fun .def_183 () Bool (and .def_161 .def_182))
(define-fun .def_184 () Bool (and .def_109 .def_183))
(define-fun .def_185 () Bool (and |.loc{8}| .def_184))
(define-fun .def_349 () Bool (or .def_185 .def_348))
(define-fun .def_350 () Bool (or .def_185 .def_349))
(define-fun .def_61 () Bool (= .def_14 |.x{925}|))
(define-fun .def_351 () Bool (and .def_61 .def_350))
(define-fun .def_353 () Bool (and .def_351 .def_352))
(define-fun .def_133 () Int (* 4294967296 .def_124))
(define-fun .def_135 () Int (* (- 1) .def_133))
(define-fun .def_136 () Int (+ |.x{937}| .def_135))
(define-fun .def_137 () Int (+ (- 4294967296) .def_136))
(define-fun .def_139 () Bool (<= .def_127 2147483647))
(define-fun .def_140 () Int (ite .def_139 .def_136 .def_137))
(define-fun .def_142 () Int (* 4 .def_140))
(define-fun .def_143 () Int (+ |.x{942}| .def_142))
(define-fun .def_144 () (Array Int Int) (select .def_14 |.x{936}|))
(define-fun .def_145 () (Array Int Int) (store .def_144 .def_143 |.x{937}|))
(define-fun .def_146 () (Array Int (Array Int Int)) (store .def_14 |.x{936}| .def_145))
(define-fun .def_147 () Bool (= |.x{925}| .def_146))
(define-fun .def_130 () Bool (not .def_129))
(define-fun .def_121 () Bool (= |.x{937}| |.x{938}|))
(define-fun .def_131 () Bool (and .def_121 .def_130))
(define-fun .def_148 () Bool (and .def_131 .def_147))
(define-fun .def_149 () Bool (or |.x{898}| .def_148))
(define-fun .def_117 () Bool (and .def_115 .def_116))
(define-fun .def_118 () Bool (and .def_60 .def_117))
(define-fun .def_119 () Bool (and .def_63 .def_118))
(define-fun .def_120 () Bool (and .def_93 .def_119))
(define-fun .def_150 () Bool (and .def_120 .def_149))
(define-fun .def_151 () Bool (and .def_95 .def_150))
(define-fun .def_153 () Bool (and .def_151 .def_152))
(define-fun .def_154 () Bool (and .def_97 .def_153))
(define-fun .def_155 () Bool (and .def_99 .def_154))
(define-fun .def_157 () Bool (and .def_155 .def_156))
(define-fun .def_159 () Bool (and .def_157 .def_158))
(define-fun .def_160 () Bool (and .def_54 .def_159))
(define-fun .def_162 () Bool (and .def_160 .def_161))
(define-fun .def_163 () Bool (and .def_109 .def_162))
(define-fun .def_164 () Bool (and |.loc{7}| .def_163))
(define-fun .def_165 () Bool (and .def_112 .def_164))
(define-fun .def_354 () Bool (or .def_165 .def_353))
(define-fun .def_356 () Bool (and .def_354 .def_355))
(define-fun .def_358 () Bool (and .def_356 .def_357))
(define-fun .def_360 () Bool (and .def_358 .def_359))
(define-fun .def_362 () Bool (and .def_360 .def_361))
(define-fun .def_104 () Bool (= |.x{931}| 0))
(define-fun .def_103 () Bool (= |.x{927}| 0))
(define-fun .def_105 () Bool (and .def_103 .def_104))
(define-fun .def_101 () (Array Int Int) (store .def_10 0 0))
(define-fun .def_102 () Bool (= |.x{91}| .def_101))
(define-fun .def_106 () Bool (and .def_102 .def_105))
(define-fun .def_107 () Bool (or .def_52 .def_106))
(define-fun .def_84 () (Array Int Int) (store .def_22 |.x{936}| 40000))
(define-fun .def_85 () Bool (= |.x{929}| .def_84))
(define-fun .def_79 () Bool (<= |.x{922}| |.x{936}|))
(define-fun .def_80 () Bool (not .def_79))
(define-fun .def_77 () Bool (= |.x{936}| 0))
(define-fun .def_78 () Bool (not .def_77))
(define-fun .def_81 () Bool (and .def_78 .def_80))
(define-fun .def_75 () (Array Int Int) (store |.x{91}| |.x{936}| 1))
(define-fun .def_76 () Bool (= |.x{923}| .def_75))
(define-fun .def_82 () Bool (and .def_76 .def_81))
(define-fun .def_86 () Bool (and .def_82 .def_85))
(define-fun .def_73 () Bool (= |.x{937}| 0))
(define-fun .def_87 () Bool (and .def_73 .def_86))
(define-fun .def_72 () Bool (= |.x{942}| 0))
(define-fun .def_88 () Bool (and .def_72 .def_87))
(define-fun .def_70 () Int (select |.x{91}| |.x{936}|))
(define-fun .def_71 () Bool (= .def_70 0))
(define-fun .def_89 () Bool (and .def_71 .def_88))
(define-fun .def_68 () Bool (= |.x{938}| 0))
(define-fun .def_90 () Bool (and .def_68 .def_89))
(define-fun .def_91 () Bool (or |.x{898}| .def_90))
(define-fun .def_62 () Bool (and .def_60 .def_61))
(define-fun .def_64 () Bool (and .def_62 .def_63))
(define-fun .def_66 () Bool (and .def_64 .def_65))
(define-fun .def_92 () Bool (and .def_66 .def_91))
(define-fun .def_94 () Bool (and .def_92 .def_93))
(define-fun .def_96 () Bool (and .def_94 .def_95))
(define-fun .def_98 () Bool (and .def_96 .def_97))
(define-fun .def_100 () Bool (and .def_98 .def_99))
(define-fun .def_108 () Bool (and .def_100 .def_107))
(define-fun .def_110 () Bool (and .def_108 .def_109))
(define-fun .def_111 () Bool (and |.loc{7}| .def_110))
(define-fun .def_113 () Bool (and .def_111 .def_112))
(define-fun .def_363 () Bool (or .def_113 .def_362))
(define-fun .def_375 () Bool (! (and .def_363 .def_374) :trans true))
(define-fun .def_389 () Bool (and .def_54 .def_63))
(define-fun .def_390 () Bool (and .def_58 .def_389))
(define-fun .def_391 () Bool (and .def_52 .def_390))
(define-fun .def_392 () Bool (! (not .def_391) :invar-property 0))
(assert true)
